Warehouses = 5;
Stores = 13;

Capacity = [100, 60, 100, 30, 60];
FixedCost = [880, 680, 1220, 330, 540];
Goods = [16, 11, 17, 13, 10, 10, 10, 10, 14, 7, 16, 11, 11];
SupplyCost = [|15, 49, 48, 70, 27
              |44, 22, 26, 37, 60
              |68, 36, 30, 47, 85
              |51, 25, 17, 43, 69
              |78, 34, 31, 35, 96
              |58, 5, 8, 21, 76
              |29, 77, 72, 101, 23
              |48, 84, 77, 107, 48
              |11, 45, 42, 67, 28
              |32, 23, 23, 45, 50
              |69, 21, 19, 26, 87
              |26, 68, 67, 87, 23
              |48, 24, 29, 36, 64|];
